# Solution for model evaporation_srl_ilp
# Objective value = 2.0224170743937247e+01
Z_54_1_0 0
Z_54_1_1 0
Z_54_1_2 0
Z_54_1_3 1
Z_51_1_0 0
Z_51_1_1 0
Z_51_1_2 0
Z_51_1_3 1
Z_51_2_0 1
Z_51_2_1 0
Z_51_2_2 0
Z_51_2_3 0
Z_51_3_0 0
Z_51_3_1 0
Z_51_3_2 1
Z_51_3_3 0
Z_108_1_0 0
Z_108_1_1 0
Z_108_1_2 0
Z_108_1_3 1
Z_113_1_0 0
Z_113_1_1 0
Z_113_1_2 0
Z_113_1_3 1
Z_113_2_0 0
Z_113_2_1 1
Z_113_2_2 0
Z_113_2_3 0
Z_113_3_0 0
Z_113_3_1 0
Z_113_3_2 1
Z_113_3_3 0
Z_113_4_0 1
Z_113_4_1 0
Z_113_4_2 0
Z_113_4_3 0
Z_28_1_0 0
Z_28_1_1 0
Z_28_1_2 0
Z_28_1_3 1
Z_89_1_0 0
Z_89_1_1 0
Z_89_1_2 0
Z_89_1_3 1
Z_89_2_0 0
Z_89_2_1 0
Z_89_2_2 1
Z_89_2_3 0
Z_16_1_0 0
Z_16_1_1 0
Z_16_1_2 0
Z_16_1_3 1
Z_117_1_0 0
Z_117_1_1 0
Z_117_1_2 0
Z_117_1_3 1
Z_32_1_0 0
Z_32_1_1 0
Z_32_1_2 0
Z_32_1_3 1
Z_32_2_0 0
Z_32_2_1 0
Z_32_2_2 1
Z_32_2_3 0
